\* Reduce_Cost *\
Minimize
Sum_of_cost: 1.8 _19M12Product_14ClinchingClincher_02
 + 3.6 _19M12Product_14ClinchingClincher_Subcon
 + 0.3 _19M12Product_14PressingHydraulicPress_01
 + 0.6 _19M12Product_14PressingHydraulicPress_Subcon
 + 2.3 _19M12Product_17ClinchingClincher_02
 + 4.6 _19M12Product_17ClinchingClincher_Subcon
 + 6.5 _19M12Product_17HeatStakingHeatStake_07
 + 5.8 _19M12Product_17HeatStakingHeatStake_08
 + 6.8 _19M12Product_17HeatStakingHeatStake_10
 + 11.6 _19M12Product_17HeatStakingHeatStake_Subcon
 + _19M12Product_17PressingHydraulicPress_01
 + 2 _19M12Product_17PressingHydraulicPress_Subcon
 + 3 _19M12Product_17TestingTester_07 + 2 _19M12Product_17TestingTester_08
 + 1.1 _19M12Product_17TestingTester_10
 + 2.2 _19M12Product_17TestingTester_Subcon
 + 2.7 _19M12Product_22ClinchingClincher_02
 + 5.4 _19M12Product_22ClinchingClincher_Subcon
 + 4.5 _19M12Product_22HeatStakingHeatStake_06
 + 9 _19M12Product_22HeatStakingHeatStake_Subcon
 + 1.5 _19M12Product_22PressingHydraulicPress_01
 + 3 _19M12Product_22PressingHydraulicPress_Subcon
 + 3 _19M12Product_22TestingTester_06 + 6 _19M12Product_22TestingTester_Subcon
 + 2.4 _19M12Product_25ClinchingClincher_02
 + 4.8 _19M12Product_25ClinchingClincher_Subcon
 + 0.6 _19M12Product_25PressingHydraulicPress_01
 + 1.2 _19M12Product_25PressingHydraulicPress_Subcon
 + 2.7 _19M12Product_26ClinchingClincher_02
 + 5.4 _19M12Product_26ClinchingClincher_Subcon
 + 1.5 _19M12Product_26PressingHydraulicPress_01
 + 3 _19M12Product_26PressingHydraulicPress_Subcon
 + 2.7 _19M12Product_27ClinchingClincher_02
 + 5.4 _19M12Product_27ClinchingClincher_Subcon
 + 1.5 _19M12Product_27PressingHydraulicPress_01
 + 3 _19M12Product_27PressingHydraulicPress_Subcon
 + 2.9 _19M12Product_28ClinchingClincher_02
 + 5.8 _19M12Product_28ClinchingClincher_Subcon
 + 3.6 _19M12Product_28HeatStakingHeatStake_05
 + 7.2 _19M12Product_28HeatStakingHeatStake_Subcon
 + 1.2 _19M12Product_28PressingHydraulicPress_01
 + 2.4 _19M12Product_28PressingHydraulicPress_Subcon
 + 1.2 _19M12Product_28TestingTester_05
 + 2.4 _19M12Product_28TestingTester_Subcon
 + 2.9 _19M12Product_29ClinchingClincher_02
 + 5.8 _19M12Product_29ClinchingClincher_Subcon
 + 3.6 _19M12Product_29HeatStakingHeatStake_05
 + 7.2 _19M12Product_29HeatStakingHeatStake_Subcon
 + 1.2 _19M12Product_29PressingHydraulicPress_01
 + 2.4 _19M12Product_29PressingHydraulicPress_Subcon
 + 2.6 _19M12Product_29TestingTester_05
 + 5.2 _19M12Product_29TestingTester_Subcon
 + 1.5 _19M12Product_37ClinchingClincher_02
 + 3 _19M12Product_37ClinchingClincher_Subcon
 + 5.4 _19M12Product_37HeatStakingHeatStake_04
 + 5.4 _19M12Product_37HeatStakingHeatStake_06
 + 10.8 _19M12Product_37HeatStakingHeatStake_Subcon
 + 0.3 _19M12Product_37PressingHydraulicPress_01
 + 0.6 _19M12Product_37PressingHydraulicPress_Subcon
 + 2.3 _19M12Product_37TestingTester_04 + 2.3 _19M12Product_37TestingTester_06
 + 4.6 _19M12Product_37TestingTester_Subcon
 + 1.5 _19M12Product_41ClinchingClincher_02
 + 3 _19M12Product_41ClinchingClincher_Subcon
 + 4.6 _19M12Product_41HeatStakingHeatStake_04
 + 9.2 _19M12Product_41HeatStakingHeatStake_Subcon
 + 0.5 _19M12Product_41PressingHydraulicPress_01
 + _19M12Product_41PressingHydraulicPress_Subcon
 + 2.3 _19M12Product_41TestingTester_04
 + 4.6 _19M12Product_41TestingTester_Subcon
 + 2.3 _19M12Product_46ClinchingClincher_02
 + 4.6 _19M12Product_46ClinchingClincher_Subcon
 + 1.8 _19M12Product_46PressingHydraulicPress_01
 + 3.6 _19M12Product_46PressingHydraulicPress_Subcon
 + 2.2 _19M12Product_47ClinchingClincher_02
 + 4.4 _19M12Product_47ClinchingClincher_Subcon
 + 1.9 _19M12Product_47PressingHydraulicPress_01
 + 3.8 _19M12Product_47PressingHydraulicPress_Subcon
 + 2.2 _19M12Product_48ClinchingClincher_02
 + 4.4 _19M12Product_48ClinchingClincher_Subcon
 + 1.9 _19M12Product_48PressingHydraulicPress_01
 + 3.8 _19M12Product_48PressingHydraulicPress_Subcon
 + 1.4 _19M12Product_57ClinchingClincher_01
 + 2.8 _19M12Product_57ClinchingClincher_Subcon
 + 7.5 _19M12Product_57HeatStakingHeatStake_06
 + 7.3 _19M12Product_57HeatStakingHeatStake_07
 + 7.3 _19M12Product_57HeatStakingHeatStake_08
 + 7.9 _19M12Product_57HeatStakingHeatStake_09
 + 14.6 _19M12Product_57HeatStakingHeatStake_Subcon
 + 0.6 _19M12Product_57PressingHydraulicPress_01
 + 1.2 _19M12Product_57PressingHydraulicPress_Subcon
 + 2.5 _19M12Product_57TestingTester_06 + 2.7 _19M12Product_57TestingTester_07
 + 2.9 _19M12Product_57TestingTester_08 + 3 _19M12Product_57TestingTester_09
 + 5 _19M12Product_57TestingTester_Subcon
 + 1.4 _19M12Product_58ClinchingClincher_01
 + 2.8 _19M12Product_58ClinchingClincher_Subcon
 + 7.5 _19M12Product_58HeatStakingHeatStake_06
 + 7.3 _19M12Product_58HeatStakingHeatStake_07
 + 7.3 _19M12Product_58HeatStakingHeatStake_08
 + 7.9 _19M12Product_58HeatStakingHeatStake_09
 + 14.6 _19M12Product_58HeatStakingHeatStake_Subcon
 + 0.6 _19M12Product_58PressingHydraulicPress_01
 + 1.2 _19M12Product_58PressingHydraulicPress_Subcon
 + 2.5 _19M12Product_58TestingTester_06 + 2.7 _19M12Product_58TestingTester_07
 + 2.9 _19M12Product_58TestingTester_08 + 3 _19M12Product_58TestingTester_09
 + 5 _19M12Product_58TestingTester_Subcon
 + 1.4 _19M12Product_59ClinchingClincher_01
 + 2.8 _19M12Product_59ClinchingClincher_Subcon
 + 5.7 _19M12Product_59HeatStakingHeatStake_07
 + 6 _19M12Product_59HeatStakingHeatStake_08
 + 11.4 _19M12Product_59HeatStakingHeatStake_Subcon
 + _19M12Product_59PressingHydraulicPress_01
 + 2 _19M12Product_59PressingHydraulicPress_Subcon
 + 2.9 _19M12Product_59TestingTester_07 + 3.5 _19M12Product_59TestingTester_08
 + 5.8 _19M12Product_59TestingTester_Subcon
 + 1.4 _19M12Product_60ClinchingClincher_01
 + 2.8 _19M12Product_60ClinchingClincher_Subcon
 + 5.7 _19M12Product_60HeatStakingHeatStake_07
 + 6 _19M12Product_60HeatStakingHeatStake_08
 + 11.4 _19M12Product_60HeatStakingHeatStake_Subcon
 + _19M12Product_60PressingHydraulicPress_01
 + 2 _19M12Product_60PressingHydraulicPress_Subcon
 + 2.9 _19M12Product_60TestingTester_07 + 3.5 _19M12Product_60TestingTester_08
 + 5.8 _19M12Product_60TestingTester_Subcon
 + 1.2 _19M12Product_66ClinchingClincher_02
 + 2.4 _19M12Product_66ClinchingClincher_Subcon
 + 8 _19M12Product_66HeatStakingHeatStake_07
 + 7 _19M12Product_66HeatStakingHeatStake_08
 + 14 _19M12Product_66HeatStakingHeatStake_Subcon
 + 0.4 _19M12Product_66PressingHydraulicPress_01
 + 0.8 _19M12Product_66PressingHydraulicPress_Subcon
 + 1.2 _19M12Product_66TestingTester_07 + 1.5 _19M12Product_66TestingTester_08
 + 2.4 _19M12Product_66TestingTester_Subcon
 + 1.2 _19M12Product_67ClinchingClincher_02
 + 2.4 _19M12Product_67ClinchingClincher_Subcon
 + 8 _19M12Product_67HeatStakingHeatStake_07
 + 7 _19M12Product_67HeatStakingHeatStake_08
 + 14 _19M12Product_67HeatStakingHeatStake_Subcon
 + 0.4 _19M12Product_67PressingHydraulicPress_01
 + 0.8 _19M12Product_67PressingHydraulicPress_Subcon
 + 1.2 _19M12Product_67TestingTester_07 + 1.5 _19M12Product_67TestingTester_08
 + 2.4 _19M12Product_67TestingTester_Subcon
 + 2.4 _19M12Product_69ClinchingClincher_02
 + 4.8 _19M12Product_69ClinchingClincher_Subcon
 + 5.1 _19M12Product_69HeatStakingHeatStake_06
 + 10.2 _19M12Product_69HeatStakingHeatStake_Subcon
 + 1.7 _19M12Product_69PressingHydraulicPress_01
 + 3.4 _19M12Product_69PressingHydraulicPress_Subcon
 + 1.8 _19M12Product_69TestingTester_06
 + 3.6 _19M12Product_69TestingTester_Subcon
 + 1.8 _19M12Product_70ClinchingClincher_02
 + 3.6 _19M12Product_70ClinchingClincher_Subcon
 + 3.4 _19M12Product_70HeatStakingHeatStake_06
 + 6.8 _19M12Product_70HeatStakingHeatStake_Subcon
 + 2 _19M12Product_70PressingHydraulicPress_01
 + 4 _19M12Product_70PressingHydraulicPress_Subcon
 + 1.1 _19M12Product_70TestingTester_06
 + 2.2 _19M12Product_70TestingTester_Subcon
 + 2.4 _19M12Product_73ClinchingClincher_01
 + 4.8 _19M12Product_73ClinchingClincher_Subcon
 + 5 _19M12Product_73HeatStakingHeatStake_04
 + 6.6 _19M12Product_73HeatStakingHeatStake_09
 + 10 _19M12Product_73HeatStakingHeatStake_Subcon
 + 1.3 _19M12Product_73PressingHydraulicPress_01
 + 2.6 _19M12Product_73PressingHydraulicPress_Subcon
 + 2.6 _19M12Product_73TestingTester_04 + 2.6 _19M12Product_73TestingTester_09
 + 5.2 _19M12Product_73TestingTester_Subcon
 + 2.4 _19M12Product_74ClinchingClincher_01
 + 4.8 _19M12Product_74ClinchingClincher_Subcon
 + 5 _19M12Product_74HeatStakingHeatStake_04
 + 6.6 _19M12Product_74HeatStakingHeatStake_09
 + 10 _19M12Product_74HeatStakingHeatStake_Subcon
 + 1.3 _19M12Product_74PressingHydraulicPress_01
 + 2.6 _19M12Product_74PressingHydraulicPress_Subcon
 + 2.6 _19M12Product_74TestingTester_04 + 2.6 _19M12Product_74TestingTester_09
 + 5.2 _19M12Product_74TestingTester_Subcon
 + 2.4 _19M12Product_75ClinchingClincher_01
 + 4.8 _19M12Product_75ClinchingClincher_Subcon
 + 5 _19M12Product_75HeatStakingHeatStake_04
 + 3.2 _19M12Product_75HeatStakingHeatStake_09
 + 6.4 _19M12Product_75HeatStakingHeatStake_Subcon
 + 1.6 _19M12Product_75PressingHydraulicPress_01
 + 3.2 _19M12Product_75PressingHydraulicPress_Subcon
 + 1.9 _19M12Product_75TestingTester_04 + 1.9 _19M12Product_75TestingTester_09
 + 3.8 _19M12Product_75TestingTester_Subcon
 + 2.4 _19M12Product_76ClinchingClincher_01
 + 4.8 _19M12Product_76ClinchingClincher_Subcon
 + 5 _19M12Product_76HeatStakingHeatStake_04
 + 3.2 _19M12Product_76HeatStakingHeatStake_09
 + 6.4 _19M12Product_76HeatStakingHeatStake_Subcon
 + 1.6 _19M12Product_76PressingHydraulicPress_01
 + 3.2 _19M12Product_76PressingHydraulicPress_Subcon
 + 1.9 _19M12Product_76TestingTester_04 + 1.9 _19M12Product_76TestingTester_09
 + 3.8 _19M12Product_76TestingTester_Subcon
 + 2.2 _19M12Product_77ClinchingClincher_02
 + 4.4 _19M12Product_77ClinchingClincher_Subcon
 + 1.8 _19M12Product_77PressingHydraulicPress_01
 + 3.6 _19M12Product_77PressingHydraulicPress_Subcon
 + 2.2 _19M12Product_79ClinchingClincher_02
 + 4.4 _19M12Product_79ClinchingClincher_Subcon
 + 1.8 _19M12Product_79PressingHydraulicPress_01
 + 3.6 _19M12Product_79PressingHydraulicPress_Subcon
 + 2.2 _19M12Product_85ClinchingClincher_02
 + 4.4 _19M12Product_85ClinchingClincher_Subcon
 + 3.1 _19M12Product_85HeatStakingHeatStake_05
 + 6.2 _19M12Product_85HeatStakingHeatStake_Subcon
 + 1.1 _19M12Product_85PressingHydraulicPress_01
 + 2.2 _19M12Product_85PressingHydraulicPress_Subcon
 + 2.7 _19M12Product_85TestingTester_05
 + 5.4 _19M12Product_85TestingTester_Subcon
 + 2.2 _19M12Product_86ClinchingClincher_02
 + 4.4 _19M12Product_86ClinchingClincher_Subcon
 + 3.1 _19M12Product_86HeatStakingHeatStake_05
 + 6.2 _19M12Product_86HeatStakingHeatStake_Subcon
 + 1.1 _19M12Product_86PressingHydraulicPress_01
 + 2.2 _19M12Product_86PressingHydraulicPress_Subcon
 + 2.7 _19M12Product_86TestingTester_05
 + 5.4 _19M12Product_86TestingTester_Subcon
Subject To
_C1: _19M12Product_14PressingHydraulicPress_01
 + _19M12Product_14PressingHydraulicPress_Subcon = 65
_C10: _19M12Product_22ClinchingClincher_02
 + _19M12Product_22ClinchingClincher_Subcon = 23
_C100: 30 _19M12Product_14ClinchingClincher_02
 + 20.3 _19M12Product_17ClinchingClincher_02
 + 124.1 _19M12Product_22ClinchingClincher_02
 + 41.4 _19M12Product_25ClinchingClincher_02
 + 40 _19M12Product_26ClinchingClincher_02
 + 40 _19M12Product_27ClinchingClincher_02
 + 59 _19M12Product_28ClinchingClincher_02
 + 59 _19M12Product_29ClinchingClincher_02
 + 36.4 _19M12Product_37ClinchingClincher_02
 + 240 _19M12Product_41ClinchingClincher_02
 + 40 _19M12Product_46ClinchingClincher_02
 + 40 _19M12Product_47ClinchingClincher_02
 + 40 _19M12Product_48ClinchingClincher_02
 + 128.6 _19M12Product_66ClinchingClincher_02
 + 128.6 _19M12Product_67ClinchingClincher_02
 + 28.1 _19M12Product_69ClinchingClincher_02
 + 26.1 _19M12Product_70ClinchingClincher_02
 + 30 _19M12Product_77ClinchingClincher_02
 + 30 _19M12Product_79ClinchingClincher_02
 + 59 _19M12Product_85ClinchingClincher_02
 + 59 _19M12Product_86ClinchingClincher_02 <= 18748800
_C101: 30 _19M12Product_14ClinchingClincher_Subcon
 + 20.3 _19M12Product_17ClinchingClincher_Subcon
 + 124.1 _19M12Product_22ClinchingClincher_Subcon
 + 41.4 _19M12Product_25ClinchingClincher_Subcon
 + 40 _19M12Product_26ClinchingClincher_Subcon
 + 40 _19M12Product_27ClinchingClincher_Subcon
 + 59 _19M12Product_28ClinchingClincher_Subcon
 + 59 _19M12Product_29ClinchingClincher_Subcon
 + 36.4 _19M12Product_37ClinchingClincher_Subcon
 + 240 _19M12Product_41ClinchingClincher_Subcon
 + 40 _19M12Product_46ClinchingClincher_Subcon
 + 40 _19M12Product_47ClinchingClincher_Subcon
 + 40 _19M12Product_48ClinchingClincher_Subcon
 + 60 _19M12Product_57ClinchingClincher_Subcon
 + 60 _19M12Product_58ClinchingClincher_Subcon
 + 90 _19M12Product_59ClinchingClincher_Subcon
 + 90 _19M12Product_60ClinchingClincher_Subcon
 + 128.6 _19M12Product_66ClinchingClincher_Subcon
 + 128.6 _19M12Product_67ClinchingClincher_Subcon
 + 28.1 _19M12Product_69ClinchingClincher_Subcon
 + 26.1 _19M12Product_70ClinchingClincher_Subcon
 + 40 _19M12Product_73ClinchingClincher_Subcon
 + 40 _19M12Product_74ClinchingClincher_Subcon
 + 10 _19M12Product_75ClinchingClincher_Subcon
 + 10 _19M12Product_76ClinchingClincher_Subcon
 + 30 _19M12Product_77ClinchingClincher_Subcon
 + 30 _19M12Product_79ClinchingClincher_Subcon
 + 59 _19M12Product_85ClinchingClincher_Subcon
 + 59 _19M12Product_86ClinchingClincher_Subcon <= 265161600
_C102: 24.8 _19M12Product_14PressingHydraulicPress_Subcon
 + 7.2 _19M12Product_17PressingHydraulicPress_Subcon
 + 372.4 _19M12Product_22PressingHydraulicPress_Subcon
 + 24.8 _19M12Product_25PressingHydraulicPress_Subcon
 + 99.3 _19M12Product_26PressingHydraulicPress_Subcon
 + 99.3 _19M12Product_27PressingHydraulicPress_Subcon
 + 24.8 _19M12Product_28PressingHydraulicPress_Subcon
 + 24.8 _19M12Product_29PressingHydraulicPress_Subcon
 + 24.8 _19M12Product_37PressingHydraulicPress_Subcon
 + 446.9 _19M12Product_41PressingHydraulicPress_Subcon
 + 124.1 _19M12Product_46PressingHydraulicPress_Subcon
 + 124.1 _19M12Product_47PressingHydraulicPress_Subcon
 + 124.1 _19M12Product_48PressingHydraulicPress_Subcon
 + 270 _19M12Product_57PressingHydraulicPress_Subcon
 + 270 _19M12Product_58PressingHydraulicPress_Subcon
 + 420 _19M12Product_59PressingHydraulicPress_Subcon
 + 420 _19M12Product_60PressingHydraulicPress_Subcon
 + 300 _19M12Product_66PressingHydraulicPress_Subcon
 + 300 _19M12Product_67PressingHydraulicPress_Subcon
 + 24.8 _19M12Product_69PressingHydraulicPress_Subcon
 + 24.8 _19M12Product_70PressingHydraulicPress_Subcon
 + 198.6 _19M12Product_73PressingHydraulicPress_Subcon
 + 198.6 _19M12Product_74PressingHydraulicPress_Subcon
 + 74.5 _19M12Product_75PressingHydraulicPress_Subcon
 + 74.5 _19M12Product_76PressingHydraulicPress_Subcon
 + 49.7 _19M12Product_77PressingHydraulicPress_Subcon
 + 49.7 _19M12Product_79PressingHydraulicPress_Subcon
 + 24.8 _19M12Product_85PressingHydraulicPress_Subcon
 + 24.8 _19M12Product_86PressingHydraulicPress_Subcon <= 265161600
_C103: 19.8 _19M12Product_17HeatStakingHeatStake_10 <= 2678400
_C104: 21 _19M12Product_17HeatStakingHeatStake_07
 + 72 _19M12Product_57HeatStakingHeatStake_07
 + 72 _19M12Product_58HeatStakingHeatStake_07
 + 60 _19M12Product_59HeatStakingHeatStake_07
 + 60 _19M12Product_60HeatStakingHeatStake_07
 + 65 _19M12Product_66HeatStakingHeatStake_07
 + 65 _19M12Product_67HeatStakingHeatStake_07 <= 2678400
_C105: 32 _19M12Product_17HeatStakingHeatStake_08
 + 65 _19M12Product_57HeatStakingHeatStake_08
 + 65 _19M12Product_58HeatStakingHeatStake_08
 + 55 _19M12Product_59HeatStakingHeatStake_08
 + 55 _19M12Product_60HeatStakingHeatStake_08
 + 60 _19M12Product_66HeatStakingHeatStake_08
 + 60 _19M12Product_67HeatStakingHeatStake_08 <= 2678400
_C106: 12.3 _19M12Product_17TestingTester_10 <= 2678400
_C107: 15 _19M12Product_17TestingTester_07
 + 52 _19M12Product_57TestingTester_07 + 52 _19M12Product_58TestingTester_07
 + 36 _19M12Product_59TestingTester_07 + 36 _19M12Product_60TestingTester_07
 + 42 _19M12Product_66TestingTester_07 + 42 _19M12Product_67TestingTester_07
 <= 2678400
_C108: 13 _19M12Product_17TestingTester_08
 + 60 _19M12Product_57TestingTester_08 + 60 _19M12Product_58TestingTester_08
 + 32 _19M12Product_59TestingTester_08 + 32 _19M12Product_60TestingTester_08
 + 42 _19M12Product_66TestingTester_08 + 42 _19M12Product_67TestingTester_08
 <= 2678400
_C109: 12.3 _19M12Product_17TestingTester_Subcon
 + 30 _19M12Product_22TestingTester_Subcon
 + 40 _19M12Product_28TestingTester_Subcon
 + 40 _19M12Product_29TestingTester_Subcon
 + 22 _19M12Product_37TestingTester_Subcon
 + 30.5 _19M12Product_41TestingTester_Subcon
 + 41 _19M12Product_57TestingTester_Subcon
 + 41 _19M12Product_58TestingTester_Subcon
 + 32 _19M12Product_59TestingTester_Subcon
 + 32 _19M12Product_60TestingTester_Subcon
 + 42 _19M12Product_66TestingTester_Subcon
 + 42 _19M12Product_67TestingTester_Subcon
 + 22 _19M12Product_69TestingTester_Subcon
 + 22 _19M12Product_70TestingTester_Subcon
 + 30 _19M12Product_73TestingTester_Subcon
 + 30 _19M12Product_74TestingTester_Subcon
 + 30 _19M12Product_75TestingTester_Subcon
 + 30 _19M12Product_76TestingTester_Subcon
 + 40 _19M12Product_85TestingTester_Subcon
 + 40 _19M12Product_86TestingTester_Subcon <= 265161600
_C11: _19M12Product_25PressingHydraulicPress_01
 + _19M12Product_25PressingHydraulicPress_Subcon = 7410
_C110: 19.8 _19M12Product_17HeatStakingHeatStake_Subcon
 + 120 _19M12Product_22HeatStakingHeatStake_Subcon
 + 60 _19M12Product_28HeatStakingHeatStake_Subcon
 + 60 _19M12Product_29HeatStakingHeatStake_Subcon
 + 23 _19M12Product_37HeatStakingHeatStake_Subcon
 + 180 _19M12Product_41HeatStakingHeatStake_Subcon
 + 44 _19M12Product_57HeatStakingHeatStake_Subcon
 + 44 _19M12Product_58HeatStakingHeatStake_Subcon
 + 55 _19M12Product_59HeatStakingHeatStake_Subcon
 + 55 _19M12Product_60HeatStakingHeatStake_Subcon
 + 60 _19M12Product_66HeatStakingHeatStake_Subcon
 + 60 _19M12Product_67HeatStakingHeatStake_Subcon
 + 20 _19M12Product_69HeatStakingHeatStake_Subcon
 + 27.1 _19M12Product_70HeatStakingHeatStake_Subcon
 + 40 _19M12Product_73HeatStakingHeatStake_Subcon
 + 40 _19M12Product_74HeatStakingHeatStake_Subcon
 + 40 _19M12Product_75HeatStakingHeatStake_Subcon
 + 40 _19M12Product_76HeatStakingHeatStake_Subcon
 + 60 _19M12Product_85HeatStakingHeatStake_Subcon
 + 60 _19M12Product_86HeatStakingHeatStake_Subcon <= 265161600
_C111: 120 _19M12Product_22HeatStakingHeatStake_06
 + 28.1 _19M12Product_37HeatStakingHeatStake_06
 + 50 _19M12Product_57HeatStakingHeatStake_06
 + 50 _19M12Product_58HeatStakingHeatStake_06
 + 20 _19M12Product_69HeatStakingHeatStake_06
 + 27.1 _19M12Product_70HeatStakingHeatStake_06 <= 2678400
_C112: 30 _19M12Product_22TestingTester_06
 + 22 _19M12Product_37TestingTester_06 + 48 _19M12Product_57TestingTester_06
 + 48 _19M12Product_58TestingTester_06 + 22 _19M12Product_69TestingTester_06
 + 22 _19M12Product_70TestingTester_06 <= 2678400
_C113: 60 _19M12Product_28HeatStakingHeatStake_05
 + 60 _19M12Product_29HeatStakingHeatStake_05
 + 60 _19M12Product_85HeatStakingHeatStake_05
 + 60 _19M12Product_86HeatStakingHeatStake_05 <= 2678400
_C114: 40 _19M12Product_28TestingTester_05
 + 40 _19M12Product_29TestingTester_05 + 40 _19M12Product_85TestingTester_05
 + 40 _19M12Product_86TestingTester_05 <= 2678400
_C115: 23 _19M12Product_37HeatStakingHeatStake_04
 + 180 _19M12Product_41HeatStakingHeatStake_04
 + 40 _19M12Product_73HeatStakingHeatStake_04
 + 40 _19M12Product_74HeatStakingHeatStake_04
 + 40 _19M12Product_75HeatStakingHeatStake_04
 + 40 _19M12Product_76HeatStakingHeatStake_04 <= 2678400
_C116: 25 _19M12Product_37TestingTester_04
 + 30.5 _19M12Product_41TestingTester_04 + 30 _19M12Product_73TestingTester_04
 + 30 _19M12Product_74TestingTester_04 + 30 _19M12Product_75TestingTester_04
 + 30 _19M12Product_76TestingTester_04 <= 2678400
_C117: 44 _19M12Product_57HeatStakingHeatStake_09
 + 44 _19M12Product_58HeatStakingHeatStake_09
 + 60 _19M12Product_73HeatStakingHeatStake_09
 + 60 _19M12Product_74HeatStakingHeatStake_09
 + 60 _19M12Product_75HeatStakingHeatStake_09
 + 60 _19M12Product_76HeatStakingHeatStake_09 <= 2678400
_C118: 41 _19M12Product_57TestingTester_09
 + 41 _19M12Product_58TestingTester_09 + 30 _19M12Product_73TestingTester_09
 + 30 _19M12Product_74TestingTester_09 + 30 _19M12Product_75TestingTester_09
 + 30 _19M12Product_76TestingTester_09 <= 2678400
_C119: 60 _19M12Product_57ClinchingClincher_01
 + 60 _19M12Product_58ClinchingClincher_01
 + 90 _19M12Product_59ClinchingClincher_01
 + 90 _19M12Product_60ClinchingClincher_01
 + 40 _19M12Product_73ClinchingClincher_01
 + 40 _19M12Product_74ClinchingClincher_01
 + 10 _19M12Product_75ClinchingClincher_01
 + 10 _19M12Product_76ClinchingClincher_01 <= 8035200
_C12: _19M12Product_25ClinchingClincher_02
 + _19M12Product_25ClinchingClincher_Subcon = 7410
_C13: _19M12Product_26PressingHydraulicPress_01
 + _19M12Product_26PressingHydraulicPress_Subcon = 0
_C14: _19M12Product_26ClinchingClincher_02
 + _19M12Product_26ClinchingClincher_Subcon = 0
_C15: _19M12Product_27PressingHydraulicPress_01
 + _19M12Product_27PressingHydraulicPress_Subcon = 0
_C16: _19M12Product_27ClinchingClincher_02
 + _19M12Product_27ClinchingClincher_Subcon = 0
_C17: _19M12Product_28HeatStakingHeatStake_05
 + _19M12Product_28HeatStakingHeatStake_Subcon = 0
_C18: _19M12Product_28TestingTester_05 + _19M12Product_28TestingTester_Subcon
 = 0
_C19: _19M12Product_28PressingHydraulicPress_01
 + _19M12Product_28PressingHydraulicPress_Subcon = 0
_C2: _19M12Product_14ClinchingClincher_02
 + _19M12Product_14ClinchingClincher_Subcon = 65
_C20: _19M12Product_28ClinchingClincher_02
 + _19M12Product_28ClinchingClincher_Subcon = 0
_C21: _19M12Product_29HeatStakingHeatStake_05
 + _19M12Product_29HeatStakingHeatStake_Subcon = 0
_C22: _19M12Product_29TestingTester_05 + _19M12Product_29TestingTester_Subcon
 = 0
_C23: _19M12Product_29PressingHydraulicPress_01
 + _19M12Product_29PressingHydraulicPress_Subcon = 0
_C24: _19M12Product_29ClinchingClincher_02
 + _19M12Product_29ClinchingClincher_Subcon = 0
_C25: _19M12Product_37HeatStakingHeatStake_04
 + _19M12Product_37HeatStakingHeatStake_06
 + _19M12Product_37HeatStakingHeatStake_Subcon = 39332
_C26: _19M12Product_37TestingTester_04 + _19M12Product_37TestingTester_06
 + _19M12Product_37TestingTester_Subcon = 39332
_C27: _19M12Product_37PressingHydraulicPress_01
 + _19M12Product_37PressingHydraulicPress_Subcon = 39332
_C28: _19M12Product_37ClinchingClincher_02
 + _19M12Product_37ClinchingClincher_Subcon = 39332
_C29: _19M12Product_41HeatStakingHeatStake_04
 + _19M12Product_41HeatStakingHeatStake_Subcon = 0
_C3: _19M12Product_17HeatStakingHeatStake_07
 + _19M12Product_17HeatStakingHeatStake_08
 + _19M12Product_17HeatStakingHeatStake_10
 + _19M12Product_17HeatStakingHeatStake_Subcon = 0
_C30: _19M12Product_41TestingTester_04 + _19M12Product_41TestingTester_Subcon
 = 0
_C31: _19M12Product_41PressingHydraulicPress_01
 + _19M12Product_41PressingHydraulicPress_Subcon = 0
_C32: _19M12Product_41ClinchingClincher_02
 + _19M12Product_41ClinchingClincher_Subcon = 0
_C33: _19M12Product_46PressingHydraulicPress_01
 + _19M12Product_46PressingHydraulicPress_Subcon = 0
_C34: _19M12Product_46ClinchingClincher_02
 + _19M12Product_46ClinchingClincher_Subcon = 0
_C35: _19M12Product_47PressingHydraulicPress_01
 + _19M12Product_47PressingHydraulicPress_Subcon = 0
_C36: _19M12Product_47ClinchingClincher_02
 + _19M12Product_47ClinchingClincher_Subcon = 0
_C37: _19M12Product_48PressingHydraulicPress_01
 + _19M12Product_48PressingHydraulicPress_Subcon = 0
_C38: _19M12Product_48ClinchingClincher_02
 + _19M12Product_48ClinchingClincher_Subcon = 0
_C39: _19M12Product_57HeatStakingHeatStake_06
 + _19M12Product_57HeatStakingHeatStake_07
 + _19M12Product_57HeatStakingHeatStake_08
 + _19M12Product_57HeatStakingHeatStake_09
 + _19M12Product_57HeatStakingHeatStake_Subcon = 16826
_C4: _19M12Product_17TestingTester_07 + _19M12Product_17TestingTester_08
 + _19M12Product_17TestingTester_10 + _19M12Product_17TestingTester_Subcon = 0
_C40: _19M12Product_57TestingTester_06 + _19M12Product_57TestingTester_07
 + _19M12Product_57TestingTester_08 + _19M12Product_57TestingTester_09
 + _19M12Product_57TestingTester_Subcon = 16826
_C41: _19M12Product_57PressingHydraulicPress_01
 + _19M12Product_57PressingHydraulicPress_Subcon = 16826
_C42: _19M12Product_57ClinchingClincher_01
 + _19M12Product_57ClinchingClincher_Subcon = 16826
_C43: _19M12Product_58HeatStakingHeatStake_06
 + _19M12Product_58HeatStakingHeatStake_07
 + _19M12Product_58HeatStakingHeatStake_08
 + _19M12Product_58HeatStakingHeatStake_09
 + _19M12Product_58HeatStakingHeatStake_Subcon = 17281
_C44: _19M12Product_58TestingTester_06 + _19M12Product_58TestingTester_07
 + _19M12Product_58TestingTester_08 + _19M12Product_58TestingTester_09
 + _19M12Product_58TestingTester_Subcon = 17281
_C45: _19M12Product_58PressingHydraulicPress_01
 + _19M12Product_58PressingHydraulicPress_Subcon = 17281
_C46: _19M12Product_58ClinchingClincher_01
 + _19M12Product_58ClinchingClincher_Subcon = 17281
_C47: _19M12Product_59HeatStakingHeatStake_07
 + _19M12Product_59HeatStakingHeatStake_08
 + _19M12Product_59HeatStakingHeatStake_Subcon = 16630
_C48: _19M12Product_59TestingTester_07 + _19M12Product_59TestingTester_08
 + _19M12Product_59TestingTester_Subcon = 16630
_C49: _19M12Product_59PressingHydraulicPress_01
 + _19M12Product_59PressingHydraulicPress_Subcon = 16630
_C5: _19M12Product_17PressingHydraulicPress_01
 + _19M12Product_17PressingHydraulicPress_Subcon = 0
_C50: _19M12Product_59ClinchingClincher_01
 + _19M12Product_59ClinchingClincher_Subcon = 16630
_C51: _19M12Product_60HeatStakingHeatStake_07
 + _19M12Product_60HeatStakingHeatStake_08
 + _19M12Product_60HeatStakingHeatStake_Subcon = 16960
_C52: _19M12Product_60TestingTester_07 + _19M12Product_60TestingTester_08
 + _19M12Product_60TestingTester_Subcon = 16960
_C53: _19M12Product_60PressingHydraulicPress_01
 + _19M12Product_60PressingHydraulicPress_Subcon = 16960
_C54: _19M12Product_60ClinchingClincher_01
 + _19M12Product_60ClinchingClincher_Subcon = 16960
_C55: _19M12Product_66HeatStakingHeatStake_07
 + _19M12Product_66HeatStakingHeatStake_08
 + _19M12Product_66HeatStakingHeatStake_Subcon = 4488
_C56: _19M12Product_66TestingTester_07 + _19M12Product_66TestingTester_08
 + _19M12Product_66TestingTester_Subcon = 4488
_C57: _19M12Product_66PressingHydraulicPress_01
 + _19M12Product_66PressingHydraulicPress_Subcon = 4488
_C58: _19M12Product_66ClinchingClincher_02
 + _19M12Product_66ClinchingClincher_Subcon = 4488
_C59: _19M12Product_67HeatStakingHeatStake_07
 + _19M12Product_67HeatStakingHeatStake_08
 + _19M12Product_67HeatStakingHeatStake_Subcon = 5033
_C6: _19M12Product_17ClinchingClincher_02
 + _19M12Product_17ClinchingClincher_Subcon = 0
_C60: _19M12Product_67TestingTester_07 + _19M12Product_67TestingTester_08
 + _19M12Product_67TestingTester_Subcon = 5033
_C61: _19M12Product_67PressingHydraulicPress_01
 + _19M12Product_67PressingHydraulicPress_Subcon = 5033
_C62: _19M12Product_67ClinchingClincher_02
 + _19M12Product_67ClinchingClincher_Subcon = 5033
_C63: _19M12Product_69HeatStakingHeatStake_06
 + _19M12Product_69HeatStakingHeatStake_Subcon = 67424
_C64: _19M12Product_69TestingTester_06 + _19M12Product_69TestingTester_Subcon
 = 67424
_C65: _19M12Product_69PressingHydraulicPress_01
 + _19M12Product_69PressingHydraulicPress_Subcon = 67424
_C66: _19M12Product_69ClinchingClincher_02
 + _19M12Product_69ClinchingClincher_Subcon = 67424
_C67: _19M12Product_70HeatStakingHeatStake_06
 + _19M12Product_70HeatStakingHeatStake_Subcon = 18730
_C68: _19M12Product_70TestingTester_06 + _19M12Product_70TestingTester_Subcon
 = 18730
_C69: _19M12Product_70PressingHydraulicPress_01
 + _19M12Product_70PressingHydraulicPress_Subcon = 18730
_C7: _19M12Product_22HeatStakingHeatStake_06
 + _19M12Product_22HeatStakingHeatStake_Subcon = 23
_C70: _19M12Product_70ClinchingClincher_02
 + _19M12Product_70ClinchingClincher_Subcon = 18730
_C71: _19M12Product_73HeatStakingHeatStake_04
 + _19M12Product_73HeatStakingHeatStake_09
 + _19M12Product_73HeatStakingHeatStake_Subcon = 0
_C72: _19M12Product_73TestingTester_04 + _19M12Product_73TestingTester_09
 + _19M12Product_73TestingTester_Subcon = 0
_C73: _19M12Product_73PressingHydraulicPress_01
 + _19M12Product_73PressingHydraulicPress_Subcon = 0
_C74: _19M12Product_73ClinchingClincher_01
 + _19M12Product_73ClinchingClincher_Subcon = 0
_C75: _19M12Product_74HeatStakingHeatStake_04
 + _19M12Product_74HeatStakingHeatStake_09
 + _19M12Product_74HeatStakingHeatStake_Subcon = 290
_C76: _19M12Product_74TestingTester_04 + _19M12Product_74TestingTester_09
 + _19M12Product_74TestingTester_Subcon = 290
_C77: _19M12Product_74PressingHydraulicPress_01
 + _19M12Product_74PressingHydraulicPress_Subcon = 290
_C78: _19M12Product_74ClinchingClincher_01
 + _19M12Product_74ClinchingClincher_Subcon = 290
_C79: _19M12Product_75HeatStakingHeatStake_04
 + _19M12Product_75HeatStakingHeatStake_09
 + _19M12Product_75HeatStakingHeatStake_Subcon = 0
_C8: _19M12Product_22TestingTester_06 + _19M12Product_22TestingTester_Subcon
 = 23
_C80: _19M12Product_75TestingTester_04 + _19M12Product_75TestingTester_09
 + _19M12Product_75TestingTester_Subcon = 0
_C81: _19M12Product_75PressingHydraulicPress_01
 + _19M12Product_75PressingHydraulicPress_Subcon = 0
_C82: _19M12Product_75ClinchingClincher_01
 + _19M12Product_75ClinchingClincher_Subcon = 0
_C83: _19M12Product_76HeatStakingHeatStake_04
 + _19M12Product_76HeatStakingHeatStake_09
 + _19M12Product_76HeatStakingHeatStake_Subcon = 0
_C84: _19M12Product_76TestingTester_04 + _19M12Product_76TestingTester_09
 + _19M12Product_76TestingTester_Subcon = 0
_C85: _19M12Product_76PressingHydraulicPress_01
 + _19M12Product_76PressingHydraulicPress_Subcon = 0
_C86: _19M12Product_76ClinchingClincher_01
 + _19M12Product_76ClinchingClincher_Subcon = 0
_C87: _19M12Product_77PressingHydraulicPress_01
 + _19M12Product_77PressingHydraulicPress_Subcon = 0
_C88: _19M12Product_77ClinchingClincher_02
 + _19M12Product_77ClinchingClincher_Subcon = 0
_C89: _19M12Product_79PressingHydraulicPress_01
 + _19M12Product_79PressingHydraulicPress_Subcon = 0
_C9: _19M12Product_22PressingHydraulicPress_01
 + _19M12Product_22PressingHydraulicPress_Subcon = 23
_C90: _19M12Product_79ClinchingClincher_02
 + _19M12Product_79ClinchingClincher_Subcon = 0
_C91: _19M12Product_85HeatStakingHeatStake_05
 + _19M12Product_85HeatStakingHeatStake_Subcon = 3
_C92: _19M12Product_85TestingTester_05 + _19M12Product_85TestingTester_Subcon
 = 3
_C93: _19M12Product_85PressingHydraulicPress_01
 + _19M12Product_85PressingHydraulicPress_Subcon = 3
_C94: _19M12Product_85ClinchingClincher_02
 + _19M12Product_85ClinchingClincher_Subcon = 3
_C95: _19M12Product_86HeatStakingHeatStake_05
 + _19M12Product_86HeatStakingHeatStake_Subcon = 0
_C96: _19M12Product_86TestingTester_05 + _19M12Product_86TestingTester_Subcon
 = 0
_C97: _19M12Product_86PressingHydraulicPress_01
 + _19M12Product_86PressingHydraulicPress_Subcon = 0
_C98: _19M12Product_86ClinchingClincher_02
 + _19M12Product_86ClinchingClincher_Subcon = 0
_C99: 24.8 _19M12Product_14PressingHydraulicPress_01
 + 7.2 _19M12Product_17PressingHydraulicPress_01
 + 372.4 _19M12Product_22PressingHydraulicPress_01
 + 24.8 _19M12Product_25PressingHydraulicPress_01
 + 99.3 _19M12Product_26PressingHydraulicPress_01
 + 99.3 _19M12Product_27PressingHydraulicPress_01
 + 24.8 _19M12Product_28PressingHydraulicPress_01
 + 24.8 _19M12Product_29PressingHydraulicPress_01
 + 24.8 _19M12Product_37PressingHydraulicPress_01
 + 446.9 _19M12Product_41PressingHydraulicPress_01
 + 124.1 _19M12Product_46PressingHydraulicPress_01
 + 124.1 _19M12Product_47PressingHydraulicPress_01
 + 124.1 _19M12Product_48PressingHydraulicPress_01
 + 270 _19M12Product_57PressingHydraulicPress_01
 + 270 _19M12Product_58PressingHydraulicPress_01
 + 420 _19M12Product_59PressingHydraulicPress_01
 + 420 _19M12Product_60PressingHydraulicPress_01
 + 300 _19M12Product_66PressingHydraulicPress_01
 + 300 _19M12Product_67PressingHydraulicPress_01
 + 24.8 _19M12Product_69PressingHydraulicPress_01
 + 24.8 _19M12Product_70PressingHydraulicPress_01
 + 198.6 _19M12Product_73PressingHydraulicPress_01
 + 198.6 _19M12Product_74PressingHydraulicPress_01
 + 74.5 _19M12Product_75PressingHydraulicPress_01
 + 74.5 _19M12Product_76PressingHydraulicPress_01
 + 49.7 _19M12Product_77PressingHydraulicPress_01
 + 49.7 _19M12Product_79PressingHydraulicPress_01
 + 24.8 _19M12Product_85PressingHydraulicPress_01
 + 24.8 _19M12Product_86PressingHydraulicPress_01 <= 69638400
End
